NAME: sim-grid-B-35
TYPE: TSP
COMMENT: Semi-regular Grid
DIMENSION: 35
EDGE_WEIGHT_TYPE: EUC_2D
NODE_COORD_SECTION
1 150 50
2 350 50
3 750 50
4 1250 50
5 1350 50
6 1550 50
7 350 100
8 650 100
9 950 100
10 1050 100
11 1550 100
12 450 300
13 1150 300
14 650 350
15 800 350
16 1150 350
17 1350 350
18 1500 350
19 100 550
20 300 550
21 500 550
22 900 550
23 1100 550
24 100 600
25 700 600
26 100 800
27 450 800
28 600 800
29 800 800
30 100 850
31 250 850
32 450 850
33 600 850
34 950 850
35 1500 850
EOF
